benchmarks/bfuzz0/18895252155139277122918923736191984963.smt2
(set-logic QF_FP)
(declare-const x0 (_ FloatingPoint 11 53))
(declare-const x1 (_ FloatingPoint 11 53))
(declare-const x2 (_ FloatingPoint 11 53))
(declare-const x3 (_ FloatingPoint 11 53))
(declare-const x4 (_ FloatingPoint 11 53))
(assert (fp.gt (fp.add RNE (fp.add RNE x4 x3) (fp.neg x0)) (fp.neg (fp.div RNE x0 x4))))
(assert (fp.eq (fp.div RNE (fp.add RNE x1 x1) (fp.mul RNE x4 x4)) (fp.neg (fp.sub RNE x0 x4))))
(check-sat)
