db/data/18895252155139277122918923736191984963.z3.out
sat
-------------------
117.297471150
